Instance Name : rc106
Date : 2022-07-18
Solution
Route 1 : 98 12 14 47 73 79 60 55 70
Route 2 : 95 33 28 29 27 26 89
Route 3 : 42 44 39 40 36 38 41 43 37 35
Route 4 : 61 81 94 67 93 96 54
Route 5 : 72 71 31 30 32 34 50 91 80
Route 6 : 65 52 87 59 75 58 77 25
Route 7 : 64 57 99 86 74 97
Route 8 : 2 45 5 8 7 6 46 4 3 1 100
Route 9 : 69 88 78 53 90 68
Route 10 : 82 16 15 11 10 9 13 17
Route 11 : 92 62 63 85 76 51 84 56 66
Route 12 : 83 23 21 22 19 18 48 49 20 24
